48
0 1 C23ClH18N3O2S
C                    -5.352916178703     3.344127185658     1.849312367171
O                    -5.362096275129     2.122823068662     2.594697120770
C                    -4.942589658503     1.015656872741     1.882532989696
C                    -5.873003743554     0.068702867809     1.489899227221
C                    -5.441751767532    -1.071472290408     0.794664680065
C                    -6.135742618807    -2.190450281852     0.231851003185
C                    -5.192663405243    -2.967476329788    -0.380392878410
N                    -3.932088005414    -2.410880012265    -0.235850305109
C                    -2.736136442861    -2.976576658113    -0.839273966946
C                    -4.056605194096    -1.238845102455     0.496495033468
C                    -3.088913530058    -0.300222143438     0.929349618340
C                    -1.632036758208    -0.482031832136     0.747732476592
C                    -0.804602481828    -1.387672948575     1.374674206089
C                     0.552532111833    -1.296530415911     0.974741939627
C                     0.780681770053    -0.313751226971     0.035688745507
C                     2.066324854126     0.031205815578    -0.567605392425
C                     2.198759823718     1.117896622922    -1.496741711648
N                     3.335434443185     1.453779304165    -2.055692068139
C                     4.429924024508     0.710802472355    -1.713043843470
C                     5.686383256416     1.024801454656    -2.283581305133
C                     6.784669406902     0.272745277822    -1.933590432978
Cl                    8.354704827063     0.643057382521    -2.628371144149
C                     6.689864998338    -0.805310939638    -1.018640715462
C                     5.473744179882    -1.120243460849    -0.457389158508
C                     4.313495418004    -0.372434178437    -0.788677938080
N                     3.121344309832    -0.698102385606    -0.226349248768
S                    -0.713420052466     0.512491761678    -0.357260833917
C                    -3.562724683724     0.830595483788     1.612071903597
O                    -2.659291850521     1.791759864106     2.010356010934
C                    -2.380992668153     1.809149394314     3.416249815501
H                    -4.343535203788     3.591630726858     1.503997172220
H                    -6.029867818736     3.278396496671     0.986983640980
H                    -5.709890630355     4.119996278180     2.530958178635
H                    -6.921188943688     0.229894002879     1.723321474302
H                    -7.199243626675    -2.381190917573     0.268884955414
H                    -5.304101894820    -3.892697776501    -0.929450363448
H                    -2.196357935739    -2.221232453625    -1.416240291885
H                    -2.055363859281    -3.389890260189    -0.088829855213
H                    -3.044041726057    -3.777043826829    -1.516041217611
H                    -1.171559448649    -2.090677483967     2.115155387629
H                     1.353902018942    -1.916635139857     1.357901904951
H                     1.327327934675     1.712733608337    -1.767860597970
H                     5.752442030816     1.850775844755    -2.982559412882
H                     7.581358577346    -1.371378723716    -0.770856761289
H                     5.371455958442    -1.940278220430     0.246288753479
H                    -1.927108193114     0.861184505446     3.731374645799
H                    -3.291335775197     1.996388207572     3.994010494833
H                    -1.667598264781     2.621420310015     3.573042104808
